n_res = 4;
rc = [ 25, 10, 17, 18 ];
n_tasks = 30;
d = [ 5, 9, 5, 10, 3, 9, 10, 10, 5, 4, 5, 10, 1, 1, 8, 6, 2, 1, 7, 1, 1, 6, 2, 5, 10, 3, 10, 1, 6, 1 ];
rr = [| 0, 2, 0, 0, 3, 4, 10, 0, 0, 0, 0, 0, 0, 0, 0, 10, 6, 0, 0, 5, 6, 0, 4, 0, 0, 0, 10, 0, 0, 0
      | 0, 0, 0, 0, 0, 0, 0, 0, 0, 0, 5, 0, 0, 10, 1, 0, 0, 0, 0, 0, 0, 0, 0, 9, 0, 0, 0, 0, 0, 0
      | 2, 0, 0, 0, 0, 0, 0, 0, 9, 1, 0, 8, 0, 0, 0, 0, 0, 8, 0, 0, 0, 9, 0, 0, 5, 8, 0, 0, 6, 4
      | 0, 0, 6, 4, 0, 0, 0, 10, 0, 0, 0, 0, 8, 0, 0, 0, 0, 0, 4, 0, 0, 0, 0, 0, 0, 0, 0, 3, 0, 0 |];
suc = [ { 2 }, 
        { 3 }, 
        { 4 }, 
        { 5 }, 
        { 6 }, 
        { 7 }, 
        { 8 }, 
        { 9 }, 
        { 10 }, 
        { 11 }, 
        { 12 }, 
        { 13 }, 
        { 14 }, 
        { 15 }, 
        { 16 }, 
        { 17 }, 
        { 18 }, 
        { 19 }, 
        { 20 }, 
        { 21 }, 
        { 22 }, 
        { 23 }, 
        { 24 }, 
        { 25 }, 
        { 26 }, 
        { 27 }, 
        { 28 }, 
        { 29 }, 
        { 30 }, 
        {  }]; 
